# 1 amount of Vehicles
param nv :=
4 ;

# 2 amount of Orders
param no :=
7 ;

# 3 amount of locations
param nl :=
10 ;

# 4 amount of factories
param nf :=
4 ;

# 5 factory sets
set N_f_2[1] :=  6 ;
set N_f_2[2] :=  7 ;
set N_f_2[3] :=  8 10 ;
set N_f_2[4] :=  9 ;

# 6 factory stop capacities
param H :=
1 1
2 1
3 1
4 1 ;

# 7 pickup locations for each order
param L_pd :=
1 2
2 4
3 3
4 1
5 5
6 4
7 3 ;

# 8 delivery locations for each order
param L_dd :=
1 7
2 6
3 10
4 8
5 9
6 7
7 6 ;

# 9 location sets
set L_2[1] :=  4 ;
set L_2[2] :=  1 ;
set L_2[3] :=  3 7 ;
set L_2[4] :=  2 6 ;
set L_2[5] :=  5 ;
set L_2[6] :=  2 7 ;
set L_2[7] :=  1 6 ;
set L_2[8] :=  4 ;
set L_2[9] :=  5 ;
set L_2[10] :=  3 ;

# 10 order weights
param Q_kg_2 :=
1 1823.142197670292
2 1735.4654526163513
3 748.6897771963799
4 1625.2093441808845
5 1990.530121897893
6 1624.5847196993097
7 12354.67579658238 ;

# 11 order volumes
param Q_vol_2 :=
1 14.760971260133843
2 21.829942229895885
3 1.7658905667573994
4 19.918858953243106
5 20.035560363426253
6 7.762592440281545
7 91.81517446976851 ;

# 12 Locations vehicle can visit
set N_v_2[1] := 2 3 4 5 6 7 9 10 ;
set N_v_2[2] := 2 3 4 5 6 7 9 10 ;
set N_v_2[3] := 1 2 3 4 5 6 7 8 9 10 ;
set N_v_2[4] := 1 2 3 4 5 6 7 8 9 10 ;

# 13 Orders vehicles can pick up
set N_vp_2[1] := 1 2 3 5 6 ;
set N_vp_2[2] := 1 2 3 5 6 ;
set N_vp_2[3] := 1 2 3 4 5 6 7 ;
set N_vp_2[4] := 1 2 3 4 5 6 7 ;

# 14 vehicle weight capacity
param K_kg :=
1 12000.0
2 18000.0
3 24000.0
4 24000.0 ;

# 15 vehicle volume capacity
param K_vol :=
1 55.0
2 71.0
3 102.0
4 102.0 ;

# 16 amount of distance intervals
param na :=
1 2
2 2
3 2
4 2 ;

# 17 amount of weight intervals
param nb :=
1 2
2 3
3 3
4 3 ;

# 18 Distance intervals
param B_2 :=
1 1 1500.0
1 2 9999999.0
2 1 1500.0
2 2 9999999.0
3 1 1500.0
3 2 9999999.0
4 1 1500.0
4 2 9999999.0 ;

# 19 Weight intervals
param Z_2 :=
1 1 1500.0
1 2 24000.0
1 3 . 
2 1 700.0
2 2 3000.0
2 3 24000.0
3 1 700.0
3 2 3000.0
3 3 24000.0
4 1 700.0
4 2 3000.0
4 3 24000.0 ;

# 20 cost per kilometer
param C_km :=
1 1 1 0.11574494469165798
1 1 2 0.3723393221028571
1 1 3 . 
1 2 1 0.07716329646110535
1 2 2 0.2482262147352381
1 2 3 . 
2 1 1 0.09622650146484377
2 1 2 0.18318747431342491
2 1 3 0.43439587578666683
2 2 1 0.060485229492187494
2 2 2 0.11514641242558135
2 2 3 0.2730488362087619
3 1 1 0.10997314453125002
3 1 2 0.20935711350105707
3 1 3 0.4964524294704762
3 2 1 0.06873321533203125
3 2 2 0.13084819593816063
3 2 3 0.3102827684190475
4 1 1 0.10997314453125002
4 1 2 0.20935711350105707
4 1 3 0.4964524294704762
4 2 1 0.06873321533203125
4 2 2 0.13084819593816063
4 2 3 0.3102827684190475 ;

# 21 cost per kilo
param C_kg :=
1 1 1 0.004564315080642704
1 1 2 8.114541859150757E-4
1 1 3 . 
1 2 1 0.0018257260322570804
1 2 2 3.245816743660299E-4
1 2 3 . 
2 1 1 0.0070495605468750035
2 1 2 0.0030595174524933127
2 1 3 8.114541859150757E-4
2 2 1 0.0028198242187500006
2 2 2 0.0012238069809973242
2 2 3 3.245816743660299E-4
3 1 1 0.0070495605468750035
3 1 2 0.0030595174524933127
3 1 3 8.114541859150757E-4
3 2 1 0.0028198242187500006
3 2 2 0.0012238069809973242
3 2 3 3.245816743660299E-4
4 1 1 0.0070495605468750035
4 1 2 0.0030595174524933127
4 1 3 8.114541859150757E-4
4 2 1 0.0028198242187500006
4 2 2 0.0012238069809973242
4 2 3 3.245816743660299E-4 ;

# 22 fixed costs
param C_fix :=
1 1 1 136.6875
1 1 2 764.94375
1 1 3 . 
1 2 1 1037.970703125
1 2 2 5808.7916015625
1 2 3 . 
2 1 1 100.68095232000002
2 1 2 236.89635840000005
2 1 3 894.8759938560002
2 2 1 930.1870876292295
2 2 2 2188.6755003040694
2 2 3 8267.721702398621
3 1 1 122.97711871999996
3 1 2 289.35792639999994
3 1 3 1093.0495669759996
3 2 1 1458.9605667660978
3 2 2 3432.848392390819
3 2 3 12967.584802256317
4 1 1 122.97711871999996
4 1 2 289.35792639999994
4 1 3 1093.0495669759996
4 2 1 1458.9605667660978
4 2 2 3432.848392390819
4 2 3 12967.584802256317 ;

# 23 stopping costs
param C_stop_2 :=
1 1 24.0
1 2 26.0
1 3 27.0
1 4 24.0
1 5 25.0
1 6 20.0
1 7 30.0
1 8 28.0
1 9 25.0
1 10 28.0
2 1 36.0
2 2 39.0
2 3 40.5
2 4 36.0
2 5 37.5
2 6 30.0
2 7 45.0
2 8 42.0
2 9 37.5
2 10 42.0
3 1 48.0
3 2 52.0
3 3 54.0
3 4 48.0
3 5 50.0
3 6 40.0
3 7 60.0
3 8 56.0
3 9 50.0
3 10 56.0
4 1 48.0
4 2 52.0
4 3 54.0
4 4 48.0
4 5 50.0
4 6 40.0
4 7 60.0
4 8 56.0
4 9 50.0
4 10 56.0 ;

# 24 cost of no transport
param C_2 :=
1 77944.31500651214
2 88732.76928838363
3 50046.68407761534
4 83741.26251300311
5 101382.24307482167
6 44050.866044145834
7 274764.8168477771 ;

# 25 timewindow amounts at location
param pi_2 :=
1 4
2 3
3 3
4 3
5 3
6 3
7 4
8 3
9 3
10 4 ;

# 26 timewindow lower bounds
param T_l_2 :=
1 1 0.0
1 2 360.0
1 3 1440.0
1 4 1800.0
2 1 120.0
2 2 420.0
2 3 1560.0
2 4 . 
3 1 0.0
3 2 1440.0
3 3 2880.0
3 4 . 
4 1 0.0
4 2 1440.0
4 3 2880.0
4 4 . 
5 1 120.0
5 2 1560.0
5 3 3000.0
5 4 . 
6 1 0.0
6 2 300.0
6 3 1440.0
6 4 . 
7 1 120.0
7 2 1560.0
7 3 3000.0
7 4 4440.0
8 1 120.0
8 2 360.0
8 3 1560.0
8 4 . 
9 1 60.0
9 2 1500.0
9 3 2940.0
9 4 . 
10 1 60.0
10 2 360.0
10 3 1500.0
10 4 1800.0 ;

# 27 timewindow upper bounds
param T_u_2 :=
1 1 300.0
1 2 660.0
1 3 1740.0
1 4 2100.0
2 1 300.0
2 2 600.0
2 3 1740.0
2 4 . 
3 1 300.0
3 2 1740.0
3 3 3180.0
3 4 . 
4 1 300.0
4 2 1620.0
4 3 3060.0
4 4 . 
5 1 360.0
5 2 1860.0
5 3 3300.0
5 4 . 
6 1 240.0
6 2 480.0
6 3 1680.0
6 4 . 
7 1 420.0
7 2 1800.0
7 3 3240.0
7 4 4680.0
8 1 300.0
8 2 540.0
8 3 1740.0
8 4 . 
9 1 300.0
9 2 1680.0
9 3 3120.0
9 4 . 
10 1 240.0
10 2 660.0
10 3 1680.0
10 4 2100.0 ;

# 28 Travel time
param T_2 :=
1 1 1 . 
1 1 2 . 
1 1 3 . 
1 1 4 . 
1 1 5 . 
1 1 6 . 
1 1 7 . 
1 1 8 . 
1 1 9 . 
1 1 10 . 
1 2 1 . 
1 2 2 . 
1 2 3 536.5149569918051
1 2 4 487.851536007744
1 2 5 316.500517597789
1 2 6 326.2873303490071
1 2 7 448.8653628279229
1 2 8 . 
1 2 9 696.3318778224655
1 2 10 284.5988796105991
1 3 1 . 
1 3 2 536.5149569918051
1 3 3 . 
1 3 4 357.77648443874045
1 3 5 403.22288960451743
1 3 6 689.7147402030809
1 3 7 333.42861919622595
1 3 8 . 
1 3 9 411.84028123462804
1 3 10 362.56492898156904
1 4 1 . 
1 4 2 487.851536007744
1 4 3 357.77648443874045
1 4 4 . 
1 4 5 243.7692882818036
1 4 6 552.4695422054037
1 4 7 0.7071067811865475
1 4 8 . 
1 4 9 852.0056114307367
1 4 10 618.1421137101287
1 5 1 . 
1 5 2 316.500517597789
1 5 3 403.22288960451743
1 5 4 243.7692882818036
1 5 5 . 
1 5 6 349.5415944590698
1 5 7 263.5006082716058
1 5 8 . 
1 5 9 884.6896915402747
1 5 10 448.7278158786974
1 6 1 . 
1 6 2 326.2873303490071
1 6 3 689.7147402030809
1 6 4 552.4695422054037
1 6 5 349.5415944590698
1 6 6 . 
1 6 7 616.0276923100974
1 6 8 . 
1 6 9 1032.9103478988795
1 6 10 605.0082719959321
1 7 1 . 
1 7 2 448.8653628279229
1 7 3 333.42861919622595
1 7 4 0.7071067811865475
1 7 5 263.5006082716058
1 7 6 616.0276923100974
1 7 7 . 
1 7 8 . 
1 7 9 864.6755368807452
1 7 10 705.456603777018
1 8 1 . 
1 8 2 . 
1 8 3 . 
1 8 4 . 
1 8 5 . 
1 8 6 . 
1 8 7 . 
1 8 8 . 
1 8 9 . 
1 8 10 . 
1 9 1 . 
1 9 2 696.3318778224655
1 9 3 411.84028123462804
1 9 4 852.0056114307367
1 9 5 884.6896915402747
1 9 6 1032.9103478988795
1 9 7 864.6755368807452
1 9 8 . 
1 9 9 . 
1 9 10 554.4866990478661
1 10 1 . 
1 10 2 284.5988796105991
1 10 3 362.56492898156904
1 10 4 618.1421137101287
1 10 5 448.7278158786974
1 10 6 605.0082719959321
1 10 7 705.456603777018
1 10 8 . 
1 10 9 554.4866990478661
1 10 10 . 
2 1 1 . 
2 1 2 . 
2 1 3 . 
2 1 4 . 
2 1 5 . 
2 1 6 . 
2 1 7 . 
2 1 8 . 
2 1 9 . 
2 1 10 . 
2 2 1 . 
2 2 2 . 
2 2 3 549.9278309166002
2 2 4 500.0478244079376
2 2 5 324.4130305377337
2 2 6 334.44451360773223
2 2 7 460.08699689862095
2 2 8 . 
2 2 9 713.740174768027
2 2 10 291.7138516008641
2 3 1 . 
2 3 2 549.9278309166002
2 3 3 . 
2 3 4 366.7208965497089
2 3 5 413.3034618446303
2 3 6 706.9576087081579
2 3 7 341.76433467613157
2 3 8 . 
2 3 9 422.1362882654937
2 3 10 371.6290522061082
2 4 1 . 
2 4 2 500.0478244079376
2 4 3 366.7208965497089
2 4 4 . 
2 4 5 249.86352048884868
2 4 6 566.2812807605388
2 4 7 0.7247844507162111
2 4 8 . 
2 4 9 873.305751716505
2 4 10 633.5956665528819
2 5 1 . 
2 5 2 324.4130305377337
2 5 3 413.3034618446303
2 5 4 249.86352048884868
2 5 5 . 
2 5 6 358.28013432054655
2 5 7 270.0881234783959
2 5 8 . 
2 5 9 906.8069338287814
2 5 10 459.94601127566483
2 6 1 . 
2 6 2 334.44451360773223
2 6 3 706.9576087081579
2 6 4 566.2812807605388
2 6 5 358.28013432054655
2 6 6 . 
2 6 7 631.4283846178498
2 6 8 . 
2 6 9 1058.7331065963515
2 6 10 620.1334787958303
2 7 1 . 
2 7 2 460.08699689862095
2 7 3 341.76433467613157
2 7 4 0.7247844507162111
2 7 5 270.0881234783959
2 7 6 631.4283846178498
2 7 7 . 
2 7 8 . 
2 7 9 886.2924253027637
2 7 10 723.0930188714434
2 8 1 . 
2 8 2 . 
2 8 3 . 
2 8 4 . 
2 8 5 . 
2 8 6 . 
2 8 7 . 
2 8 8 . 
2 8 9 . 
2 8 10 . 
2 9 1 . 
2 9 2 713.740174768027
2 9 3 422.1362882654937
2 9 4 873.305751716505
2 9 5 906.8069338287814
2 9 6 1058.7331065963515
2 9 7 886.2924253027637
2 9 8 . 
2 9 9 . 
2 9 10 568.3488665240627
2 10 1 . 
2 10 2 291.7138516008641
2 10 3 371.6290522061082
2 10 4 633.5956665528819
2 10 5 459.94601127566483
2 10 6 620.1334787958303
2 10 7 723.0930188714434
2 10 8 . 
2 10 9 568.3488665240627
2 10 10 . 
3 1 1 . 
3 1 2 735.6968260624261
3 1 3 469.51412361793797
3 1 4 799.4025535850642
3 1 5 895.6319291224593
3 1 6 1268.6268568304731
3 1 7 884.1058920022737
3 1 8 636.8304270641453
3 1 9 0.7424621202458749
3 1 10 613.0955593604066
3 2 1 735.6968260624261
3 2 2 . 
3 2 3 563.3407048413953
3 2 4 512.2441128081313
3 2 5 332.3255434776784
3 2 6 342.6016968664575
3 2 7 471.3086309693191
3 2 8 325.97191717888876
3 2 9 731.1484717135887
3 2 10 298.8288235911291
3 3 1 469.51412361793797
3 3 2 563.3407048413953
3 3 3 . 
3 3 4 375.6653086606775
3 3 5 423.38403408474335
3 3 6 724.2004772132349
3 3 7 350.10005015603724
3 3 8 435.6137931085642
3 3 9 432.4322952963595
3 3 10 380.6931754306475
3 4 1 799.4025535850642
3 4 2 512.2441128081313
3 4 3 375.6653086606775
3 4 4 . 
3 4 5 255.9577526958938
3 4 6 580.0930193156739
3 4 7 0.7424621202458749
3 4 8 617.9341303580737
3 4 9 894.6058920022737
3 4 10 649.0492193956352
3 5 1 895.6319291224593
3 5 2 332.3255434776784
3 5 3 423.38403408474335
3 5 4 255.9577526958938
3 5 5 . 
3 5 6 367.01867418202335
3 5 7 276.67563868518613
3 5 8 557.8216531779368
3 5 9 928.9241761172884
3 5 10 471.1642066726323
3 6 1 1268.6268568304731
3 6 2 342.6016968664575
3 6 3 724.2004772132349
3 6 4 580.0930193156739
3 6 5 367.01867418202335
3 6 6 . 
3 6 7 646.8290769256023
3 6 8 629.9001061547791
3 6 9 1084.5558652938237
3 6 10 635.2586855957287
3 7 1 884.1058920022737
3 7 2 471.3086309693191
3 7 3 350.10005015603724
3 7 4 0.7424621202458749
3 7 5 276.67563868518613
3 7 6 646.8290769256023
3 7 7 . 
3 7 8 704.3647488573396
3 7 9 907.9093137247825
3 7 10 740.7294339658689
3 8 1 636.8304270641453
3 8 2 325.97191717888876
3 8 3 435.6137931085642
3 8 4 617.9341303580737
3 8 5 557.8216531779368
3 8 6 629.9001061547791
3 8 7 704.3647488573396
3 8 8 . 
3 8 9 609.0964305912433
3 8 10 0.7424621202458749
3 9 1 0.7424621202458749
3 9 2 731.1484717135887
3 9 3 432.4322952963595
3 9 4 894.6058920022737
3 9 5 928.9241761172884
3 9 6 1084.5558652938237
3 9 7 907.9093137247825
3 9 8 609.0964305912433
3 9 9 . 
3 9 10 582.2110340002594
3 10 1 613.0955593604066
3 10 2 298.8288235911291
3 10 3 380.6931754306475
3 10 4 649.0492193956352
3 10 5 471.1642066726323
3 10 6 635.2586855957287
3 10 7 740.7294339658689
3 10 8 0.7424621202458749
3 10 9 582.2110340002594
3 10 10 . 
4 1 1 . 
4 1 2 735.6968260624261
4 1 3 469.51412361793797
4 1 4 799.4025535850642
4 1 5 895.6319291224593
4 1 6 1268.6268568304731
4 1 7 884.1058920022737
4 1 8 636.8304270641453
4 1 9 0.7424621202458749
4 1 10 613.0955593604066
4 2 1 735.6968260624261
4 2 2 . 
4 2 3 563.3407048413953
4 2 4 512.2441128081313
4 2 5 332.3255434776784
4 2 6 342.6016968664575
4 2 7 471.3086309693191
4 2 8 325.97191717888876
4 2 9 731.1484717135887
4 2 10 298.8288235911291
4 3 1 469.51412361793797
4 3 2 563.3407048413953
4 3 3 . 
4 3 4 375.6653086606775
4 3 5 423.38403408474335
4 3 6 724.2004772132349
4 3 7 350.10005015603724
4 3 8 435.6137931085642
4 3 9 432.4322952963595
4 3 10 380.6931754306475
4 4 1 799.4025535850642
4 4 2 512.2441128081313
4 4 3 375.6653086606775
4 4 4 . 
4 4 5 255.9577526958938
4 4 6 580.0930193156739
4 4 7 0.7424621202458749
4 4 8 617.9341303580737
4 4 9 894.6058920022737
4 4 10 649.0492193956352
4 5 1 895.6319291224593
4 5 2 332.3255434776784
4 5 3 423.38403408474335
4 5 4 255.9577526958938
4 5 5 . 
4 5 6 367.01867418202335
4 5 7 276.67563868518613
4 5 8 557.8216531779368
4 5 9 928.9241761172884
4 5 10 471.1642066726323
4 6 1 1268.6268568304731
4 6 2 342.6016968664575
4 6 3 724.2004772132349
4 6 4 580.0930193156739
4 6 5 367.01867418202335
4 6 6 . 
4 6 7 646.8290769256023
4 6 8 629.9001061547791
4 6 9 1084.5558652938237
4 6 10 635.2586855957287
4 7 1 884.1058920022737
4 7 2 471.3086309693191
4 7 3 350.10005015603724
4 7 4 0.7424621202458749
4 7 5 276.67563868518613
4 7 6 646.8290769256023
4 7 7 . 
4 7 8 704.3647488573396
4 7 9 907.9093137247825
4 7 10 740.7294339658689
4 8 1 636.8304270641453
4 8 2 325.97191717888876
4 8 3 435.6137931085642
4 8 4 617.9341303580737
4 8 5 557.8216531779368
4 8 6 629.9001061547791
4 8 7 704.3647488573396
4 8 8 . 
4 8 9 609.0964305912433
4 8 10 0.7424621202458749
4 9 1 0.7424621202458749
4 9 2 731.1484717135887
4 9 3 432.4322952963595
4 9 4 894.6058920022737
4 9 5 928.9241761172884
4 9 6 1084.5558652938237
4 9 7 907.9093137247825
4 9 8 609.0964305912433
4 9 9 . 
4 9 10 582.2110340002594
4 10 1 613.0955593604066
4 10 2 298.8288235911291
4 10 3 380.6931754306475
4 10 4 649.0492193956352
4 10 5 471.1642066726323
4 10 6 635.2586855957287
4 10 7 740.7294339658689
4 10 8 0.7424621202458749
4 10 9 582.2110340002594
4 10 10 . ;

# 29 Travel distance
param D_2 :=
1 1 . 
1 2 1277.3272877379547
1 3 654.31261641512
1 4 1290.6715306382177
1 5 1379.9655792808746
1 6 1872.4321082485208
1 7 1292.0112228614735
1 8 919.0103372650386
1 9 1.4142135623730951
1 10 919.8010654483936
2 1 1277.3272877379547
2 2 . 
2 3 819.0299139836103
2 4 831.703072015488
2 5 483.001035195578
2 6 634.5746606980143
2 7 831.730725655846
2 8 454.89888986455003
2 9 1278.6637556449311
2 10 455.1977592211983
3 1 654.31261641512
3 2 819.0299139836103
3 3 . 
3 4 639.5529688774809
3 5 758.4457792090349
3 6 1313.4294804061617
3 7 640.8572383924519
3 8 691.740558302027
3 9 655.6805624692561
3 10 693.1298579631381
4 1 1290.6715306382177
4 2 831.703072015488
4 3 639.5529688774809
4 4 . 
4 5 411.5385765636072
4 6 984.9390844108076
4 7 1.4142135623730951
4 8 1035.0173911582356
4 9 1292.0112228614735
4 10 1036.2842274202576
5 1 1379.9655792808746
5 2 483.001035195578
5 3 758.4457792090349
5 4 411.5385765636072
5 5 . 
5 6 601.0831889181396
5 7 411.0012165432117
5 8 824.5174346246415
5 9 1381.3793830805496
5 10 825.4556317573949
6 1 1872.4321082485208
6 2 634.5746606980143
6 3 1313.4294804061617
6 4 984.9390844108076
6 5 601.0831889181396
6 6 . 
6 7 984.055384620195
6 8 1087.809726009103
6 9 1873.8206957977595
6 10 1088.0165439918642
7 1 1292.0112228614735
7 2 831.730725655846
7 3 640.8572383924519
7 4 1.4142135623730951
7 5 411.0012165432117
7 6 984.055384620195
7 7 . 
7 8 1035.647140680647
7 9 1293.3510737614904
7 10 1036.9132075540363
8 1 919.0103372650386
8 2 454.89888986455003
8 3 691.740558302027
8 4 1035.0173911582356
8 5 824.5174346246415
8 6 1087.809726009103
8 7 1035.647140680647
8 8 . 
8 9 920.183677316654
8 10 1.4142135623730951
9 1 1.4142135623730951
9 2 1278.6637556449311
9 3 655.6805624692561
9 4 1292.0112228614735
9 5 1381.3793830805496
9 6 1873.8206957977595
9 7 1293.3510737614904
9 8 920.183677316654
9 9 . 
9 10 920.9733980957321
10 1 919.8010654483936
10 2 455.1977592211983
10 3 693.1298579631381
10 4 1036.2842274202576
10 5 825.4556317573949
10 6 1088.0165439918642
10 7 1036.9132075540363
10 8 1.4142135623730951
10 9 920.9733980957321
10 10 . ;

